# Solution for model qis_1000_800_562
# Objective value = 3.0109164607149341e+02
x[0] 6.3167316757288162e-07
x[1] 0
x[2] 1
x[3] 0
x[4] 0
x[5] 1
x[6] 1
x[7] 1
x[8] 0
x[9] 1
x[10] 0
x[11] 0
x[12] 1
x[13] 1
x[14] 0
x[15] 1.0000000338837933e+00
x[16] 0
x[17] 0
x[18] 0
x[19] 4.2111006594237155e-07
x[20] 1
x[21] -3.0781212312020869e-08
x[22] 1
x[23] 0
x[24] 1
x[25] 0
x[26] 1
x[27] 1
x[28] 0
x[29] 1
x[30] 9.9999971821281164e-01
x[31] 1
x[32] 1
x[33] 0
x[34] 0
x[35] 1
x[36] 0
x[37] 1
x[38] 9.9999936819653290e-01
x[39] 0
x[40] 0
x[41] 0
x[42] 1
x[43] 1
x[44] 2.1054444020862331e-07
x[45] 1
x[46] 1
x[47] 1
x[48] 0
x[49] 0
x[50] 1.0000000340544217e+00
x[51] 0
x[52] 0
x[53] 1
x[54] 0
x[55] 0
x[56] 0
x[57] 9.9999971199313575e-01
x[58] 0
x[59] 1
x[60] 1
x[61] 0
x[62] 1
x[63] 1
x[64] 0
x[65] 1
x[66] 0
x[67] 0
x[68] 0
x[69] 1
x[70] 1
x[71] 0
x[72] 0
x[73] 1
x[74] 4.2062414787996863e-07
x[75] 0
x[76] 4.2115048408993626e-07
x[77] 1
x[78] 0
x[79] 0
x[80] 1.0000000340100503e+00
x[81] 1
x[82] 0
x[83] 0
x[84] 0
x[85] 1
x[86] 1
x[87] 1
x[88] 1
x[89] 1
x[90] 0
x[91] 1
x[92] 0
x[93] 1
x[94] 0
x[95] 1
x[96] 0
x[97] 1
x[98] 9.9999937322581189e-01
x[99] 1
x[100] 0
x[101] 0
x[102] 0
x[103] 1
x[104] 0
x[105] 4.2112424284087617e-07
x[106] 1
x[107] 0
x[108] 9.9999999547094365e-01
x[109] 9.9999957879768919e-01
x[110] 0
x[111] 0
x[112] -3.4114545410801611e-08
x[113] 0
x[114] 0
x[115] 1
x[116] 6.3175529013767880e-07
x[117] 1
x[118] -3.07812122338439e-08
x[119] 1
x[120] 1
x[121] 0
x[122] 1
x[123] 1.0000000674565976e+00
x[124] 1
x[125] 0
x[126] 2.9128546674364127e-07
x[127] 0
x[128] 1
x[129] 1
x[130] 0
x[131] 0
x[132] 9.9999957879768919e-01
x[133] 0
x[134] 0
x[135] 1
x[136] 1
x[137] 1
x[138] 6.3174650854126841e-07
x[139] 1
x[140] 1
x[141] -3.0781212521557484e-08
x[142] 1
x[143] 0
x[144] 0
x[145] 0
x[146] 0
x[147] 0
x[148] 0
x[149] 1
x[150] 1
x[151] 0
x[152] 1
x[153] 0
x[154] 1
x[155] 0
x[156] 1
x[157] 0
x[158] 0
x[159] 0
x[160] 0
x[161] 0
x[162] 9.9999972154614558e-01
x[163] 1
x[164] 0
x[165] 1
x[166] 2.9120739506604183e-07
x[167] 1
x[168] 1
x[169] 0
x[170] 0
x[171] 0
x[172] 0
x[173] 4.1946394557101873e-07
x[174] 0
x[175] 1
x[176] 1
x[177] 9.9999916092872221e-01
x[178] 0
x[179] -3.4114545632846216e-08
x[180] 1
x[181] 1
x[182] 0
x[183] 0
x[184] 0
x[185] 0
x[186] 9.9999958213102225e-01
x[187] 0
x[188] 1
x[189] 0
x[190] 2.8155343093849517e-07
x[191] 1
x[192] 1
x[193] 1
x[194] 0.999999792732178
x[195] 1
x[196] 1
x[197] 0
x[198] 0
x[199] 1
x[200] 1.0000000340704438e+00
x[201] 1.0000000339756485e+00
x[202] 1
x[203] 1
x[204] 0
x[205] 1
x[206] 6.3172584895981018e-07
x[207] 1.0000000340430129e+00
x[208] 9.9999937152986640e-01
x[209] 1
x[210] 9.9999977925027461e-01
x[211] 9.9999958213102835e-01
x[212] 0
x[213] 1
x[214] -3.4114545632846216e-08
x[215] 1
x[216] 0
x[217] 1
x[218] 1
x[219] 1
x[220] 0
x[221] 0
x[222] 0
x[223] 4.28905074435851e-08
x[224] 0
x[225] 0
x[226] 1
x[227] 1
x[228] 1
x[229] 1.0000000340338373e+00
x[230] 0
x[231] 1
x[232] 0
x[233] 1
x[234] 1.0000000340483417e+00
x[235] 1
x[236] -3.0550459941069516e-08
x[237] 1
x[238] 1
x[239] 1
x[240] 0
x[241] 0
x[242] 1
x[243] 0
x[244] 1
x[245] 6.3175649239078984e-07
x[246] -2.9114545632846218e-08
x[247] 1
x[248] 0
x[249] 1
x[250] 0
x[251] 0
x[252] 0
x[253] 1
x[254] 0
x[255] 9.9999958213102258e-01
x[256] 1
x[257] 0
x[258] 1
x[259] 1
x[260] 0
x[261] 1
x[262] 1
x[263] 1
x[264] 1
x[265] 1
x[266] 0
x[267] 0
x[268] 0
x[269] 4.2101481880859077e-07
x[270] 9.9999958379768916e-01
x[271] 0
x[272] 1
x[273] 1
x[274] 1
x[275] 1
x[276] 9.9999957879768930e-01
x[277] 0
x[278] 1
x[279] 1
x[280] 1.0000000339296682e+00
x[281] 4.2115306176063095e-07
x[282] 1
x[283] 0
x[284] 1
x[285] 1
x[286] 8.4234514656210117e-07
x[287] 1.0000000340658042e+00
x[288] 0
x[289] 0
x[290] 1
x[291] 0
x[292] 1
x[293] 1
x[294] 1
x[295] 1
x[296] 0
x[297] 0
x[298] 1
x[299] 1
x[300] 0
x[301] 0
x[302] 9.9999986293256349e-01
x[303] 0
x[304] 0
x[305] 0
x[306] 1
x[307] 6.3171370066243086e-07
x[308] 0
x[309] 0
x[310] -7.1343777140037492e-09
x[311] 1
x[312] 0
x[313] 0
x[314] 1
x[315] 0
x[316] 1.0000000340560051e+00
x[317] 1
x[318] 0
x[319] 1
x[320] 1
x[321] 1
x[322] 0
x[323] 0
x[324] 0
x[325] -3.4114545870495808e-08
x[326] 0
x[327] 0
x[328] 9.9999971116233544e-01
x[329] 1
x[330] 1
x[331] 0
x[332] 0
x[333] 0
x[334] 0
x[335] 0
x[336] 1
x[337] 0
x[338] 1
x[339] 1.0000000681467609e+00
x[340] -3.0781212299512879e-08
x[341] 9.9999958369666819e-01
x[342] 0
x[343] 9.9999958213102824e-01
x[344] 1
x[345] 1
x[346] 0
x[347] 9.9999958213102280e-01
x[348] 1
x[349] 1.0000000340492079e+00
x[350] 1
x[351] 1
x[352] 0
x[353] 0
x[354] 0
x[355] 0
x[356] 0
x[357] 1
x[358] 0
x[359] 1
x[360] 4.2115187935587790e-07
x[361] 9.9999937152986673e-01
x[362] 0
x[363] 0
x[364] 1
x[365] -3.0781212077468274e-08
x[366] 1
x[367] 0
x[368] 1
x[369] 1
x[370] 4.20574632268357e-07
x[371] 1
x[372] 0
x[373] 1
x[374] 1
x[375] 0
x[376] 0
x[377] 0
x[378] -2.8618542803103643e-07
x[379] 0
x[380] 1
x[381] 1
x[382] 0
x[383] 1.0000000049086613e+00
x[384] 0
x[385] 9.9999958213102835e-01
x[386] 0
x[387] 1
x[388] 1
x[389] 1
x[390] 0
x[391] 0
x[392] 0
x[393] 9.9999957879768875e-01
x[394] 0
x[395] 9.9999972311179108e-01
x[396] 1
x[397] 1
x[398] 0
x[399] 1
x[400] 0
x[401] 0
x[402] 0
x[403] 1
x[404] 0
x[405] 0
x[406] 0
x[407] 0
x[408] 0
x[409] 9.9999937152986629e-01
x[410] 0
x[411] 1.0000000099826776e+00
x[412] 1
x[413] 4.2107109350250621e-07
x[414] 0
x[415] 1
x[416] 1
x[417] 0
x[418] 0
x[419] 1
x[420] -3.0781212299512879e-08
x[421] 1
x[422] 1
x[423] 0
x[424] 0
x[425] 2.2065811595517503e-07
x[426] 0.99999996030729
x[427] 1
x[428] 1
x[429] 1
x[430] 4.2116365239239061e-07
x[431] 1
x[432] 1.0000000335396069e+00
x[433] 0
x[434] 1
x[435] 0
x[436] 0
x[437] 1
x[438] 1
x[439] 1
x[440] 1
x[441] 0
x[442] 2.81720714064348e-07
x[443] 1
x[444] 1
x[445] 1
x[446] 1
x[447] 0
x[448] -3.0781212566910805e-08
x[449] 0
x[450] 0
x[451] 0
x[452] 1
x[453] 1
x[454] 0
x[455] 7.0039991069345612e-08
x[456] 0
x[457] 0
x[458] 1.0000002274856332e+00
x[459] 0
x[460] 1
x[461] 0
x[462] 0
x[463] 1
x[464] 1
x[465] 1
x[466] 1
x[467] 0
x[468] 2.10560381904094e-07
x[469] 0
x[470] 0
x[471] 0
x[472] 9.9999958213102236e-01
x[473] 1
x[474] 9.9999958213102236e-01
x[475] 1
x[476] -4.1786897725206680e-07
x[477] 1
x[478] 1.0000000340663535e+00
x[479] 0
x[480] 0
x[481] 0
x[482] 0
x[483] 1
x[484] 1.0000004211289224e+00
x[485] 1
x[486] 0
x[487] 0
x[488] 1
x[489] 0
x[490] 1
x[491] 0
x[492] 0
x[493] 1
x[494] 1
x[495] 0
x[496] 4.2113849826591056e-07
x[497] 0
x[498] 1
x[499] 1
x[500] 0
x[501] 0
x[502] 1
x[503] 0
x[504] 4.2109239175072680e-07
x[505] 0
x[506] 0
x[507] 1
x[508] 0
x[509] 0
x[510] 1
x[511] 0
x[512] 1
x[513] 9.9999986275878183e-01
x[514] 0
x[515] 1
x[516] 9.9999971821281164e-01
x[517] 1
x[518] 0
x[519] 0
x[520] 2.9125757466366335e-07
x[521] 1
x[522] 0
x[523] 1
x[524] 0
x[525] 9.9999957879768919e-01
x[526] 0
x[527] 1
x[528] 1
x[529] 1
x[530] 0
x[531] 1
x[532] 1
x[533] 4.2111565277782480e-07
x[534] 4.2116222061166081e-07
x[535] 9.9999957879768886e-01
x[536] 1
x[537] 1
x[538] 1
x[539] 9.9999999999999978e-01
x[540] 0
x[541] 2.8170453098165810e-07
x[542] 0
x[543] 1
x[544] 1
x[545] 1.0000000340536630e+00
x[546] 2.9124769594866247e-07
x[547] 0
x[548] 1
x[549] 0
x[550] 6.2891671691814813e-07
x[551] 0
x[552] 4.2115135936430611e-07
x[553] 0
x[554] 9.9999971204786664e-01
x[555] 1
x[556] 0
x[557] 9.9999968743159962e-01
x[558] 1.0000000240262861e+00
x[559] 0
x[560] 9.9999957879768830e-01
x[561] 0
x[562] 1
x[563] 0
x[564] 0
x[565] 2.81660114489997e-07
x[566] 0
x[567] -2.4066714022464741e-08
x[568] 0
x[569] 9.9999958379768916e-01
x[570] 0
x[571] 1
x[572] 0
x[573] 0
x[574] 1
x[575] 0
x[576] 4.2115114282842516e-07
x[577] 0
x[578] 1
x[579] 0
x[580] 9.9999958218145391e-01
x[581] 0
x[582] 1
x[583] 1
x[584] 6.3170443290149347e-07
x[585] 1
x[586] 1
x[587] 0
x[588] 1
x[589] 0
x[590] -2.9114545567177229e-08
x[591] 0
x[592] 0
x[593] 1
x[594] 0
x[595] 1
x[596] -3.4114545567177227e-08
x[597] 0
x[598] 1
x[599] 1
x[600] 0
x[601] 1
x[602] 1
x[603] 0
x[604] 4.2116201527114271e-07
x[605] 0
x[606] 1
x[607] 0
x[608] 0
x[609] 0
x[610] 1
x[611] 1
x[612] 0
x[613] 0
x[614] 6.3086266510215594e-07
x[615] 0
x[616] 0
x[617] 0
x[618] 1
x[619] 1
x[620] 9.9999958218197393e-01
x[621] 1
x[622] 1
x[623] 0
x[624] 0
x[625] -1.3441512277959589e-07
x[626] 1
x[627] 4.2114806605914440e-07
x[628] 4.2765847241541387e-09
x[629] 1.0000002875952416e+00
x[630] 0
x[631] 1
x[632] 1
x[633] 0
x[634] 0
x[635] 0
x[636] 0
x[637] 1
x[638] -3.0737110440501649e-08
x[639] 1
x[640] 1
x[641] 1
x[642] 0
x[643] 1
x[644] 2.8161908486966050e-07
x[645] 1
x[646] 0
x[647] 1
x[648] 1
x[649] 1
x[650] 1
x[651] 1
x[652] 1.0000000331218526e+00
x[653] 0
x[654] 1
x[655] 1
x[656] 1
x[657] 0
x[658] 1
x[659] 1.0000002876976972e+00
x[660] 0
x[661] 1
x[662] 1
x[663] 0
x[664] 0
x[665] 4.2114309626524311e-07
x[666] 0
x[667] 0
x[668] 0
x[669] -1.3723939372067472e-08
x[670] 1
x[671] 1
x[672] 1
x[673] 0
x[674] 0
x[675] 0
x[676] 1
x[677] 0
x[678] 1
x[679] 1
x[680] 0
x[681] 0
x[682] 1
x[683] 1
x[684] 1.0000000340744066e+00
x[685] 0
x[686] 1
x[687] 1
x[688] -6.6094750061991116e-07
x[689] 1
x[690] 1
x[691] 0
x[692] 0
x[693] 0
x[694] -3.4114545567177227e-08
x[695] 1
x[696] 0
x[697] 1
x[698] 0
x[699] 0
x[700] 1
x[701] 0
x[702] 0
x[703] 1
x[704] -3.0781212312020869e-08
x[705] 0
x[706] 1
x[707] 0
x[708] 1.0000006654862159e+00
x[709] 1
x[710] 0
x[711] 1
x[712] 0
x[713] 0
x[714] -6.8229091356399059e-08
x[715] 9.9999958213102214e-01
x[716] -2.2765842921934620e-07
x[717] 0
x[718] 1.0000000338026132e+00
x[719] 0
x[720] 1
x[721] 0
x[722] 0
x[723] 0
x[724] 9.9999916092872221e-01
x[725] -3.4114545645354213e-08
x[726] 1
x[727] -3.4114545632846216e-08
x[728] 0
x[729] 1
x[730] 1
x[731] 0
x[732] 1.0000000340350315e+00
x[733] 1
x[734] 1
x[735] -2.8773761928668762e-07
x[736] 6.3173458170921529e-07
x[737] 9.9999937152986629e-01
x[738] 4.2113568032308407e-07
x[739] 0
x[740] 9.9999971821281164e-01
x[741] 0
x[742] 1
x[743] 0
x[744] 1.0000000339475137e+00
x[745] 0
x[746] 4.2718530518827727e-08
x[747] 2.8172014750714659e-07
x[748] 0
x[749] 0
x[750] 0
x[751] 1.0000000170173939e+00
x[752] 0
x[753] 1
x[754] -3.4114545632846216e-08
x[755] 1
x[756] 1
x[757] 1
x[758] 1
x[759] 0
x[760] 1
x[761] 0.999999582190237
x[762] 1
x[763] 0
x[764] 0
x[765] 1
x[766] -3.0737110374832661e-08
x[767] 0
x[768] -6.7144985665064874e-09
x[769] 1
x[770] 1
x[771] 9.9999937152986629e-01
x[772] 0
x[773] 0
x[774] 1
x[775] 1
x[776] 0
x[777] -2.8773762013741321e-07
x[778] 0
x[779] 0
x[780] 0
x[781] 1
x[782] 1
x[783] 4.2061682688914128e-07
x[784] -2.4066713931970074e-08
x[785] 0
x[786] 0
x[787] 0
x[788] 1.0000002876776146e+00
x[789] 1
x[790] 0
x[791] 0
x[792] 0
x[793] 1
x[794] 1
x[795] 1
x[796] 0
x[797] 1
x[798] 1
x[799] 9.9999958213102247e-01
x[800] 0
x[801] 0
x[802] 1
x[803] 1
x[804] 1
x[805] 8.4225948455729671e-07
x[806] 0
x[807] 0
x[808] 1
x[809] 0
x[810] 9.9999937160748442e-01
x[811] 0
x[812] 0
x[813] 0.999999578797695
x[814] 1
x[815] 0
x[816] -3.4114545870495808e-08
x[817] 9.9999958213102280e-01
x[818] 0
x[819] 0
x[820] 1
x[821] 1
x[822] 9.9999937152986629e-01
x[823] 0
x[824] 1
x[825] 0
x[826] 4.2708054392554817e-08
x[827] 9.9999964443607670e-01
x[828] 0
x[829] 4.2113703068949720e-07
x[830] 1
x[831] 9.9999937152986473e-01
x[832] 1
x[833] 0
x[834] 4.2564670058027585e-07
x[835] 1
x[836] 0
x[837] 1
x[838] 0
x[839] 1
x[840] 1
x[841] 0
x[842] 1
x[843] 0
x[844] 1
x[845] 0
x[846] 0
x[847] 0
x[848] 0
x[849] 1
x[850] 0
x[851] 0
x[852] 4.2113059777682716e-07
x[853] 0
x[854] 1
x[855] 0
x[856] 0
x[857] 1
x[858] 0
x[859] 0
x[860] 0
x[861] 0
x[862] 0
x[863] 1
x[864] 0
x[865] 0
x[866] 4.21160847059942e-07
x[867] 1
x[868] 1
x[869] 1
x[870] 1
x[871] 0
x[872] 1
x[873] 4.21008899802427e-07
x[874] 0
x[875] 1
x[876] 0
x[877] 1
x[878] 1
x[879] 0
x[880] 0
x[881] 9.9999981214187450e-01
x[882] 9.9999958383798471e-01
x[883] -3.4114545632846216e-08
x[884] 9.9999958149460788e-01
x[885] 1
x[886] 0
x[887] 1
x[888] 1
x[889] 1
x[890] 6.31764290196904e-07
x[891] 0
x[892] 1
x[893] 4.2754033620117851e-08
x[894] 1
x[895] 1
x[896] 1
x[897] 0
x[898] 0
x[899] 9.9999999999999956e-01
x[900] 9.9999908045891350e-01
x[901] 1
x[902] 5.0832229191570227e-07
x[903] 0
x[904] 1
x[905] 0
x[906] 0
x[907] 0
x[908] 0
x[909] 1
x[910] 6.3173811732910006e-07
x[911] 0
x[912] 9.9999958106596110e-01
x[913] 1
x[914] 8.4234933880587689e-07
x[915] 1
x[916] 1
x[917] 1.0000000340721611e+00
x[918] 0
x[919] 0
x[920] 0
x[921] 0
x[922] 1.0000000340650423e+00
x[923] 1
x[924] 0
x[925] 1
x[926] 0
x[927] 1
x[928] -3.0741073228244691e-08
x[929] 1
x[930] -3.0741073202741165e-08
x[931] 1
x[932] 0
x[933] 1
x[934] 1
x[935] 1
x[936] 9.9999957879768886e-01
x[937] 0
x[938] 0
x[939] 1
x[940] 9.9999979263992245e-01
x[941] 9.9999971821281164e-01
x[942] 1.0000000118566681e+00
x[943] 0
x[944] 1
x[945] 0
x[946] 0
x[947] 0
x[948] 1
x[949] 1
x[950] 0
x[951] 1
x[952] 0
x[953] 0
x[954] 1
x[955] 0
x[956] 0
x[957] 1
x[958] 0
x[959] 0
x[960] 1
x[961] 0
x[962] 0
x[963] 1
x[964] 4.2113652200329370e-07
x[965] 0
x[966] 6.3175339486020214e-07
x[967] 0
x[968] 0
x[969] 1
x[970] 0
x[971] 0
x[972] 0
x[973] 0
x[974] 0
x[975] 0
x[976] 1
x[977] 4.2098730737580754e-07
x[978] 0
x[979] 0
x[980] 1
x[981] 0
x[982] 0
x[983] 1
x[984] 0
x[985] 0
x[986] 0
x[987] 9.9999979221929847e-01
x[988] 9.9999937091595514e-01
x[989] 0
x[990] 1
x[991] 0
x[992] 3.8697115229761516e-07
x[993] 1
x[994] 1
x[995] 0
x[996] 0
x[997] 0
x[998] 1
x[999] 9.9999996061480279e-01
